




Route 1 : 70 99 54 13 15 48 18 17 16 14 12 11 10 88 60 98 76 59 78 26 24 22 49 19 20 50 21 23 25 75 87 58 53 100 83 66 84 65 67 91
Route 2 : 69 56 89 61 79 74 80 8 7 9 47 5 46 6 4 2 3 101 71 62 42 43 45 44 41 37 36 38 39 40 73 55 82
Route 3 : 97 72 94 95 68 63 51 35 32 30 28 27 29 31 33 34 90 77 52 64 86 85 57 96 93 92 81


